spring_18/ind_study/IWLS18/exps/ets18_exps/tianka_ckt/exp_2/it_6/tianka.cnf
p cnf 116 351
-4 -1 -2 0
4 1 -2 0
4 -1 2 0
-4 1 2 0
-5 2 3 0
5 -2 0
5 -3 0
-6 -3 -3 0
6 3 0
6 3 0
7 -5 -3 0
-7 5 0
-7 3 0
-8 4 7 0
8 -4 0
8 -7 0
-9 -7 -6 0
9 7 -6 0
9 -7 6 0
-9 7 6 0
10 -8 -9 0
-10 8 0
-10 9 0
1 -109 11 0
1 109 -11 0
-1 -110 11 0
-1 110 -11 0
1 -111 12 0
1 111 -12 0
-1 -112 12 0
-1 112 -12 0
1 -113 13 0
1 113 -13 0
-1 -114 13 0
-1 114 -13 0
1 -115 14 0
1 115 -14 0
-1 -116 14 0
-1 116 -14 0
2 -11 15 0
2 11 -15 0
-2 -12 15 0
-2 12 -15 0
2 -13 16 0
2 13 -16 0
-2 -14 16 0
-2 14 -16 0
3 -15 17 0
3 15 -17 0
-3 -16 17 0
-3 16 -17 0
-18 -10 -17 0
18 10 -17 0
18 -10 17 0
-18 10 17 0
-22 -19 -20 0
22 19 -20 0
22 -19 20 0
-22 19 20 0
-23 20 21 0
23 -20 0
23 -21 0
-24 -21 -21 0
24 21 0
24 21 0
25 -23 -21 0
-25 23 0
-25 21 0
-26 22 25 0
26 -22 0
26 -25 0
-27 -25 -24 0
27 25 -24 0
27 -25 24 0
-27 25 24 0
28 -26 -27 0
-28 26 0
-28 27 0
19 -109 29 0
19 109 -29 0
-19 -110 29 0
-19 110 -29 0
19 -111 30 0
19 111 -30 0
-19 -112 30 0
-19 112 -30 0
19 -113 31 0
19 113 -31 0
-19 -114 31 0
-19 114 -31 0
19 -115 32 0
19 115 -32 0
-19 -116 32 0
-19 116 -32 0
20 -29 33 0
20 29 -33 0
-20 -30 33 0
-20 30 -33 0
20 -31 34 0
20 31 -34 0
-20 -32 34 0
-20 32 -34 0
21 -33 35 0
21 33 -35 0
-21 -34 35 0
-21 34 -35 0
-36 -28 -35 0
36 28 -35 0
36 -28 35 0
-36 28 35 0
-40 -37 -38 0
40 37 -38 0
40 -37 38 0
-40 37 38 0
-41 38 39 0
41 -38 0
41 -39 0
-42 -39 -39 0
42 39 0
42 39 0
43 -41 -39 0
-43 41 0
-43 39 0
-44 40 43 0
44 -40 0
44 -43 0
-45 -43 -42 0
45 43 -42 0
45 -43 42 0
-45 43 42 0
46 -44 -45 0
-46 44 0
-46 45 0
37 -109 47 0
37 109 -47 0
-37 -110 47 0
-37 110 -47 0
37 -111 48 0
37 111 -48 0
-37 -112 48 0
-37 112 -48 0
37 -113 49 0
37 113 -49 0
-37 -114 49 0
-37 114 -49 0
37 -115 50 0
37 115 -50 0
-37 -116 50 0
-37 116 -50 0
38 -47 51 0
38 47 -51 0
-38 -48 51 0
-38 48 -51 0
38 -49 52 0
38 49 -52 0
-38 -50 52 0
-38 50 -52 0
39 -51 53 0
39 51 -53 0
-39 -52 53 0
-39 52 -53 0
-54 -46 -53 0
54 46 -53 0
54 -46 53 0
-54 46 53 0
-58 -55 -56 0
58 55 -56 0
58 -55 56 0
-58 55 56 0
-59 56 57 0
59 -56 0
59 -57 0
-60 -57 -57 0
60 57 0
60 57 0
61 -59 -57 0
-61 59 0
-61 57 0
-62 58 61 0
62 -58 0
62 -61 0
-63 -61 -60 0
63 61 -60 0
63 -61 60 0
-63 61 60 0
64 -62 -63 0
-64 62 0
-64 63 0
55 -109 65 0
55 109 -65 0
-55 -110 65 0
-55 110 -65 0
55 -111 66 0
55 111 -66 0
-55 -112 66 0
-55 112 -66 0
55 -113 67 0
55 113 -67 0
-55 -114 67 0
-55 114 -67 0
55 -115 68 0
55 115 -68 0
-55 -116 68 0
-55 116 -68 0
56 -65 69 0
56 65 -69 0
-56 -66 69 0
-56 66 -69 0
56 -67 70 0
56 67 -70 0
-56 -68 70 0
-56 68 -70 0
57 -69 71 0
57 69 -71 0
-57 -70 71 0
-57 70 -71 0
-72 -64 -71 0
72 64 -71 0
72 -64 71 0
-72 64 71 0
-76 -73 -74 0
76 73 -74 0
76 -73 74 0
-76 73 74 0
-77 74 75 0
77 -74 0
77 -75 0
-78 -75 -75 0
78 75 0
78 75 0
79 -77 -75 0
-79 77 0
-79 75 0
-80 76 79 0
80 -76 0
80 -79 0
-81 -79 -78 0
81 79 -78 0
81 -79 78 0
-81 79 78 0
82 -80 -81 0
-82 80 0
-82 81 0
73 -109 83 0
73 109 -83 0
-73 -110 83 0
-73 110 -83 0
73 -111 84 0
73 111 -84 0
-73 -112 84 0
-73 112 -84 0
73 -113 85 0
73 113 -85 0
-73 -114 85 0
-73 114 -85 0
73 -115 86 0
73 115 -86 0
-73 -116 86 0
-73 116 -86 0
74 -83 87 0
74 83 -87 0
-74 -84 87 0
-74 84 -87 0
74 -85 88 0
74 85 -88 0
-74 -86 88 0
-74 86 -88 0
75 -87 89 0
75 87 -89 0
-75 -88 89 0
-75 88 -89 0
-90 -82 -89 0
90 82 -89 0
90 -82 89 0
-90 82 89 0
-94 -91 -92 0
94 91 -92 0
94 -91 92 0
-94 91 92 0
-95 92 93 0
95 -92 0
95 -93 0
-96 -93 -93 0
96 93 0
96 93 0
97 -95 -93 0
-97 95 0
-97 93 0
-98 94 97 0
98 -94 0
98 -97 0
-99 -97 -96 0
99 97 -96 0
99 -97 96 0
-99 97 96 0
100 -98 -99 0
-100 98 0
-100 99 0
91 -109 101 0
91 109 -101 0
-91 -110 101 0
-91 110 -101 0
91 -111 102 0
91 111 -102 0
-91 -112 102 0
-91 112 -102 0
91 -113 103 0
91 113 -103 0
-91 -114 103 0
-91 114 -103 0
91 -115 104 0
91 115 -104 0
-91 -116 104 0
-91 116 -104 0
92 -101 105 0
92 101 -105 0
-92 -102 105 0
-92 102 -105 0
92 -103 106 0
92 103 -106 0
-92 -104 106 0
-92 104 -106 0
93 -105 107 0
93 105 -107 0
-93 -106 107 0
-93 106 -107 0
-108 -100 -107 0
108 100 -107 0
108 -100 107 0
-108 100 107 0
18 0
-36 0
-54 0
-72 0
-90 0
-108 0
-19 0
-20 0
21 0
-37 0
-38 0
-39 0
-55 0
56 0
-57 0
-73 0
74 0
75 0
91 0
-92 0
-93 0
